c preprocessed version of LjubljanaGraph, 112 vertices, 168 edges
p td 112 168
0 1
0 15
0 54
1 24
1 102
2 13
2 45
3 4
4 5
5 6
6 7
7 8
8 9
9 10
10 11
11 12
12 14
13 16
13 93
14 15
16 8
16 17
17 18
17 33
18 19
18 87
19 20
19 55
20 21
20 63
21 22
21 106
22 12
22 23
23 25
23 42
24 35
24 94
25 26
25 111
26 27
26 80
27 28
27 72
28 29
28 62
29 30
30 11
30 31
31 32
31 76
32 33
32 66
33 34
34 36
35 46
35 49
36 37
36 59
37 38
37 71
38 39
38 105
39 40
40 41
40 65
41 42
41 51
42 43
43 44
43 99
44 45
44 83
45 47
46 34
46 57
47 48
47 70
48 5
48 49
49 50
50 51
50 86
51 52
52 9
52 53
53 54
53 109
54 55
55 56
56 58
56 77
57 68
57 108
58 4
58 59
59 60
60 61
60 92
61 62
61 84
62 63
63 64
64 6
64 65
65 66
66 67
67 69
67 110
68 79
68 98
69 70
69 96
70 71
71 72
72 73
73 74
73 100
74 75
74 91
75 76
75 107
76 77
77 78
78 80
78 95
79 88
79 90
80 81
81 7
81 82
82 15
82 83
83 84
84 85
85 86
85 104
86 87
87 88
88 89
89 14
89 91
90 39
90 101
91 92
92 93
93 94
94 95
95 96
96 97
97 10
97 98
98 99
99 100
100 102
101 2
101 29
102 103
103 3
103 104
104 105
105 106
106 107
107 108
108 109
109 110
110 111
111 3
